(set-logic LIA)
(set-info :license "https://creativecommons.org/licenses/by/4.0/")
(set-info :status "unknown")
(set-info :smt-lib-version "2.6")
(declare-fun old(~a3~0) () Int)
(declare-fun ~a3~0 () Int)
(assert
  (and
    (not
      (exists ((v_~a3~0_2178 Int) (reminder_0 Int) (quotient_1 Int))
        (and
          (= (* 1 reminder_0) 0)
          (<= (+ (* (- 1) old(~a3~0)) (* 1 v_~a3~0_2178)) 0)
          (<= (+ (* 1 ~a3~0) (* (- 1) quotient_1)) (- 125944))
          (<= (+ (* (- 1) v_~a3~0_2178) (* 5 reminder_0)) 0)
          (<= (+ (* 1 v_~a3~0_2178) (* (- 5) reminder_0)) 4)
          (<= (+ (* (- 1) v_~a3~0_2178) (* 5 quotient_1)) (- 600335))
          (<= (+ (* 1 v_~a3~0_2178) (* (- 5) quotient_1)) 600339)
        )
      )
    )
    (not
      (exists ((v_~a3~0_2178 Int) (quotient_2 Int) (reminder_3 Int))
        (and
          (<= (* 1 v_~a3~0_2178) 600334)
          (<= (+ (* (- 1) old(~a3~0)) (* 1 v_~a3~0_2178)) 0)
          (<= (+ (* 1 ~a3~0) (* (- 1) quotient_2)) (- 125943))
          (not
            (= (* 1 reminder_3) 0)
          )
          (<= (+ (* (- 1) v_~a3~0_2178) (* 5 quotient_2)) (- 600335))
          (<= (+ (* 1 v_~a3~0_2178) (* (- 5) quotient_2)) 600339)
          (<= (+ (* (- 1) v_~a3~0_2178) (* 5 reminder_3)) 0)
          (<= (+ (* 1 v_~a3~0_2178) (* (- 5) reminder_3)) 4)
        )
      )
    )
    (exists ((v_~a3~0_2178 Int) (quotient_4 Int))
      (and
        (<= (* (- 1) v_~a3~0_2178) (- 600335))
        (<= (+ (* (- 1) old(~a3~0)) (* 1 v_~a3~0_2178)) 0)
        (<= (+ (* 1 ~a3~0) (* (- 1) quotient_4)) (- 125944))
        (<= (+ (* (- 1) v_~a3~0_2178) (* 5 quotient_4)) (- 600335))
        (<= (+ (* 1 v_~a3~0_2178) (* (- 5) quotient_4)) 600339)
      )
    )
  )
)
(check-sat)

